c Random generated cnf formula, satisfiable: true
p cnf 10 50
3 7 8 0
-9 10 6 0
5 -2 10 0
-4 -5 6 0
10 2 8 0
-10 -9 6 0
-6 8 -10 0
-10 -2 4 0
8 6 -2 0
-6 -8 -10 0
-6 2 3 0
10 -9 8 0
-10 -6 9 0
6 -8 -3 0
9 -8 -3 0
-9 -2 -10 0
1 5 -7 0
-3 -9 6 0
2 -5 9 0
-3 9 6 0
-5 -8 1 0
-7 -8 -1 0
9 1 -4 0
-3 -7 -2 0
-2 -5 -4 0
-8 -4 -1 0
-10 -8 -5 0
6 -8 -3 0
-4 10 5 0
-9 5 4 0
10 6 -7 0
5 -4 2 0
-7 10 -5 0
4 9 -1 0
-4 -7 -6 0
5 -10 7 0
-6 1 8 0
3 -10 6 0
9 3 -1 0
-2 4 5 0
1 -9 -4 0
-7 -2 1 0
3 -4 -2 0
-5 -4 10 0
-5 1 -3 0
-9 -2 -10 0
-2 -8 -9 0
-6 5 2 0
10 6 -2 0
-9 -7 10 0
